
Gurobi 6.5.2 (linux64) logging started Tue Sep  6 10:06:29 2016

Optimize a model with 101 rows, 663 columns and 1613 nonzeros
Coefficient statistics:
  Matrix range    [1e+00, 2e+00]
  Objective range [1e+00, 1e+02]
  Bounds range    [1e+00, 1e+00]
  RHS range       [1e+00, 1e+00]
Found heuristic solution: objective 1655
Presolve removed 33 rows and 3 columns
Presolve time: 0.00s
Presolved: 68 rows, 660 columns, 1374 nonzeros
Variable types: 0 continuous, 660 integer (660 binary)

Root relaxation: objective 7.130000e+02, 65 iterations, 0.00 seconds

    Nodes    |    Current Node    |     Objective Bounds      |     Work
 Expl Unexpl |  Obj  Depth IntInf | Incumbent    BestBd   Gap | It/Node Time

     0     0  713.00000    0   16 1655.00000  713.00000  56.9%     -    0s
     0     0  733.00000    0    4 1655.00000  733.00000  55.7%     -    0s
     0     0  738.25000    0    8 1655.00000  738.25000  55.4%     -    0s
     0     0  739.50000    0   15 1655.00000  739.50000  55.3%     -    0s
     0     0  739.50000    0    2 1655.00000  739.50000  55.3%     -    0s
     0     0  739.66667    0   11 1655.00000  739.66667  55.3%     -    0s
     0     0  740.00000    0    4 1655.00000  740.00000  55.3%     -    0s
     0     0  740.12500    0   24 1655.00000  740.12500  55.3%     -    0s
     0     0  740.12500    0   24 1655.00000  740.12500  55.3%     -    0s
     0     2  740.12500    0   24 1655.00000  740.12500  55.3%     -    0s
*  802   585              70     971.0000000  742.00000  23.6%   3.1    0s
*  804   585              69     970.0000000  742.00000  23.5%   3.1    0s
*  805   585              68     968.0000000  742.00000  23.3%   3.1    0s
H  957   642                     877.0000000  743.00000  15.3%   3.2    0s
* 1278   839              60     852.0000000  745.00000  12.6%   3.2    0s
* 1284   817              63     841.0000000  745.00000  11.4%   3.2    0s
H 1290   795                     836.0000000  745.00000  10.9%   3.2    0s
H 1307   767                     835.0000000  766.00000  8.26%   3.4    0s
* 1827   962              56     820.0000000  768.00000  6.34%   3.8    0s
* 1828   918              56     817.0000000  768.00000  6.00%   3.8    0s
* 2090   724              40     785.0000000  768.21429  2.14%   3.8    0s
* 2621   637              37     782.0000000  768.21429  1.76%   3.9    1s
* 2962   458              36     779.0000000  769.00000  1.28%   3.9    1s
* 3171   328              41     777.0000000  769.08333  1.02%   4.0    1s

Cutting planes:
  Gomory: 22
  Cover: 26
  Flow cover: 2
  Zero half: 5
  Lazy constraints: 239

Explored 5481 nodes (22366 simplex iterations) in 1.41 seconds
Thread count was 8 (of 8 available processors)

Optimal solution found (tolerance 1.00e-04)
Best objective 7.770000000000e+02, best bound 7.770000000000e+02, gap 0.0%
